11
1 2
2 1
3 5
4 4
5 4
6 3
7 2
8 9
9 2
10 10
28
0 1 55
1 0 55
0 2 5
2 0 5
0 3 4
3 0 4
0 4 12
4 0 12
0 5 28
5 0 28
0 6 30
6 0 30
0 7 65
7 0 65
0 8 78
8 0 78
0 9 4
9 0 4
0 10 72
10 0 72
1 7 1
1 8 21
2 4 44
3 6 11
3 8 80
3 9 47
6 9 83
9 10 89
